Copyright (C) 2013-2015, Filipe Brandao
Build (method = -2)
  #dp: 653
  Step-3' Graph: 32 vertices and 255 arcs (0.00s)
  Step-4' Graph: 32 vertices and 255 arcs (0.00s)
  #V4/#V3 = 1.00
  #A4/#A3 = 1.00
Ready! (0.00s)
Optimize a model with 63 rows, 256 columns and 712 nonzeros
Found heuristic solution: objective 638
Presolve removed 28 rows and 76 columns
Presolve time: 0.00s
Presolved: 35 rows, 180 columns, 482 nonzeros
Variable types: 0 continuous, 180 integer (0 binary)
Optimize a model with 35 rows, 180 columns and 482 nonzeros
Presolved: 35 rows, 180 columns, 482 nonzeros

Root barrier log...

Ordering time: 0.00s

Barrier statistics:
 AA' NZ     : 1.940e+02
 Factor NZ  : 4.870e+02
 Factor Ops : 8.189e+03 (less than 1 second per iteration)
 Threads    : 1

                  Objective                Residual
Iter       Primal          Dual         Primal    Dual     Compl     Time
   0   1.68656182e+03 -4.60705019e+03  5.40e+03 2.22e-16  5.26e+01     0s
   1   7.50407478e+02 -1.75961223e+03  3.54e+02 4.44e-16  8.53e+00     0s
   2   5.41146503e+02 -1.55642930e+02  1.58e+00 3.33e-16  1.89e+00     0s
   3   4.22784350e+02  2.72523625e+02  1.84e-02 1.80e-16  4.05e-01     0s
   4   3.83457857e+02  3.69824044e+02  1.86e-04 2.22e-16  3.67e-02     0s
   5   3.82234789e+02  3.77439581e+02  9.83e-05 3.33e-16  1.29e-02     0s
   6   3.81368769e+02  3.78956509e+02  3.63e-05 2.22e-16  6.50e-03     0s
   7   3.80539162e+02  3.79802832e+02  9.66e-06 1.50e-16  1.98e-03     0s
   8   3.80365352e+02  3.80301404e+02  1.21e-06 2.55e-16  1.72e-04     0s
   9   3.80333424e+02  3.80333103e+02  2.51e-09 2.22e-16  8.65e-07     0s
  10   3.80333333e+02  3.80333333e+02  5.12e-13 3.33e-16  8.65e-10     0s
  11   3.80333333e+02  3.80333333e+02  8.53e-14 2.22e-16  8.65e-13     0s

Barrier solved model in 11 iterations and 0.00 seconds
Optimal objective 3.80333333e+02


Root relaxation: objective 3.803333e+02, 53 iterations, 0.00 seconds

    Nodes    |    Current Node    |     Objective Bounds      |     Work
 Expl Unexpl |  Obj  Depth IntInf | Incumbent    BestBd   Gap | It/Node Time

     0     0  380.33333    0    4  638.00000  380.33333  40.4%     -    0s
H    0     0                     381.0000000  380.33333  0.17%     -    0s

Explored 0 nodes (75 simplex iterations) in 0.00 seconds
Thread count was 1 (of 4 available processors)

Optimal solution found (tolerance 0.00e+00)
Best objective 3.810000000000e+02, best bound 3.810000000000e+02, gap 0.0%
Preprocessing time: 0.00 seconds
Gurobi run time: 0.00 seconds
Total run time: 0.00 seconds
Objective: 381
Solution:
3 x [i=1]
27 x [i=1, i=31]
4 x [i=2]
22 x [i=2, i=30]
26 x [i=3, i=29]
2 x [i=4]
26 x [i=4, i=28]
4 x [i=5]
15 x [i=5, i=27]
19 x [i=6, i=26]
20 x [i=7, i=25]
21 x [i=8, i=24]
2 x [i=8, i=26]
25 x [i=9, i=23]
17 x [i=10, i=22]
9 x [i=10, i=23]
3 x [i=10, i=25]
19 x [i=11, i=21]
18 x [i=12, i=20]
3 x [i=12, i=21]
1 x [i=12, i=22]
27 x [i=13, i=19]
27 x [i=14, i=18]
2 x [i=14, i=19]
1 x [i=14, i=20]
23 x [i=15, i=17]
1 x [i=16]
11 x [i=16, i=16]
1 x [i=17, i=24]
2 x [i=24, i=24, i=26]
